proyfinal/src/viki/013/experimentInOfficeAgust.take6.output/a41a5735-0713-450c-b0d7-9ad883167777.als.out
Reading from standard input... Use '--help' for help.
============================[ Problem Statistics ]=============================
|                                                                             |
|  Number of variables:         87638                                         |
|  Number of clauses:          161767                                         |
|  Parse time:                   0.04 s                                       |
|                                                                             |
============================[ Search Statistics ]==============================
| Conflicts |          ORIGINAL         |          LEARNT          | Progress |
|           |    Vars  Clauses Literals |    Limit  Clauses Lit/Cl |          |
===============================================================================
|       100 |   63361   108645   271563 |    39836      100     12 | 27.701 % |
|       250 |   63361   108645   271563 |    43820      250     28 | 27.702 % |
|       475 |   63361   108645   271563 |    48202      475     57 | 27.701 % |
|       812 |   63361   108645   271563 |    53022      812     70 | 27.701 % |
|      1318 |   63361   108645   271563 |    58324     1318     74 | 27.701 % |
|      2077 |   63361   108645   271563 |    64157     2077     79 | 27.702 % |
|      3216 |   63342   108569   271384 |    70572     3215     75 | 27.723 % |
|      4924 |   63287   108307   270783 |    77630     4911     74 | 27.786 % |
|      7486 |   63287   108307   270783 |    85393     7473     81 | 27.786 % |
|     11330 |   63161   107758   269525 |    93932    10956     81 | 27.930 % |
|     17096 |   63065   107372   268634 |   103325    16105     92 | 28.039 % |
===============================================================================
restarts              : 67
conflicts             : 19661          (5963 /sec)
decisions             : 63698          (0.00 % random) (19320 /sec)
propagations          : 30635664       (9292159 /sec)
conflict literals     : 1703608        (54.15 % deleted)
Memory used           : 44.01 MB
CPU time              : 3.29694 s

INDETERMINATE
